c generated by sgen
p cnf 97 204
-2 -3 -4 0
-1 -3 -4 0
-1 -2 -4 0
-1 -2 -3 0
-6 -7 -8 0
-5 -7 -8 0
-5 -6 -8 0
-5 -6 -7 0
-10 -11 -12 0
-9 -11 -12 0
-9 -10 -12 0
-9 -10 -11 0
-14 -15 -16 0
-13 -15 -16 0
-13 -14 -16 0
-13 -14 -15 0
-18 -19 -20 0
-17 -19 -20 0
-17 -18 -20 0
-17 -18 -19 0
-22 -23 -24 0
-21 -23 -24 0
-21 -22 -24 0
-21 -22 -23 0
-26 -27 -28 0
-25 -27 -28 0
-25 -26 -28 0
-25 -26 -27 0
-30 -31 -32 0
-29 -31 -32 0
-29 -30 -32 0
-29 -30 -31 0
-34 -35 -36 0
-33 -35 -36 0
-33 -34 -36 0
-33 -34 -35 0
-38 -39 -40 0
-37 -39 -40 0
-37 -38 -40 0
-37 -38 -39 0
-42 -43 -44 0
-41 -43 -44 0
-41 -42 -44 0
-41 -42 -43 0
-46 -47 -48 0
-45 -47 -48 0
-45 -46 -48 0
-45 -46 -47 0
-50 -51 -52 0
-49 -51 -52 0
-49 -50 -52 0
-49 -50 -51 0
-54 -55 -56 0
-53 -55 -56 0
-53 -54 -56 0
-53 -54 -55 0
-58 -59 -60 0
-57 -59 -60 0
-57 -58 -60 0
-57 -58 -59 0
-62 -63 -64 0
-61 -63 -64 0
-61 -62 -64 0
-61 -62 -63 0
-66 -67 -68 0
-65 -67 -68 0
-65 -66 -68 0
-65 -66 -67 0
-70 -71 -72 0
-69 -71 -72 0
-69 -70 -72 0
-69 -70 -71 0
-74 -75 -76 0
-73 -75 -76 0
-73 -74 -76 0
-73 -74 -75 0
-78 -79 -80 0
-77 -79 -80 0
-77 -78 -80 0
-77 -78 -79 0
-82 -83 -84 0
-81 -83 -84 0
-81 -82 -84 0
-81 -82 -83 0
-86 -87 -88 0
-85 -87 -88 0
-85 -86 -88 0
-85 -86 -87 0
-90 -91 -92 0
-89 -91 -92 0
-89 -90 -92 0
-89 -90 -91 0
-93 -94 -95 0
-93 -94 -96 0
-93 -94 -97 0
-93 -95 -96 0
-93 -95 -97 0
-93 -96 -97 0
-94 -95 -96 0
-94 -95 -97 0
-94 -96 -97 0
-95 -96 -97 0
33 5 41 0
29 5 41 0
29 33 41 0
29 33 5 0
89 95 63 0
39 95 63 0
39 89 63 0
39 89 95 0
18 15 36 0
79 15 36 0
79 18 36 0
79 18 15 0
83 23 70 0
28 23 70 0
28 83 70 0
28 83 23 0
55 2 92 0
88 2 92 0
88 55 92 0
88 55 2 0
10 56 84 0
96 56 84 0
96 10 84 0
96 10 56 0
53 62 14 0
30 62 14 0
30 53 14 0
30 53 62 0
9 27 80 0
75 27 80 0
75 9 80 0
75 9 27 0
7 52 16 0
94 52 16 0
94 7 16 0
94 7 52 0
81 64 17 0
85 64 17 0
85 81 17 0
85 81 64 0
67 97 86 0
22 97 86 0
22 67 86 0
22 67 97 0
69 12 31 0
46 12 31 0
46 69 31 0
46 69 12 0
21 40 73 0
32 40 73 0
32 21 73 0
32 21 40 0
24 13 43 0
90 13 43 0
90 24 43 0
90 24 13 0
76 34 87 0
59 34 87 0
59 76 87 0
59 76 34 0
65 51 44 0
3 51 44 0
3 65 44 0
3 65 51 0
38 82 68 0
6 82 68 0
6 38 68 0
6 38 82 0
1 11 77 0
57 11 77 0
57 1 77 0
57 1 11 0
50 45 78 0
91 45 78 0
91 50 78 0
91 50 45 0
47 25 93 0
35 25 93 0
35 47 93 0
35 47 25 0
54 49 26 0
19 49 26 0
19 54 26 0
19 54 49 0
42 72 37 0
60 72 37 0
60 42 37 0
60 42 72 0
61 48 66 0
58 48 66 0
58 61 66 0
58 61 48 0
71 8 20 0
71 8 74 0
71 8 4 0
71 20 74 0
71 20 4 0
71 74 4 0
8 20 74 0
8 20 4 0
8 74 4 0
20 74 4 0
